c FILE: i160-143

c SOURCE: From steinlib

c DESCRIPTION: Steinlib instance with 160 nodes and 2544 edges.

p edge 160 2544
e 1 9
e 1 22
e 1 32
e 1 34
e 1 40
e 1 42
e 1 52
e 1 55
e 1 57
e 1 60
e 1 61
e 1 63
e 1 66
e 1 69
e 1 72
e 1 76
e 1 77
e 1 81
e 1 82
e 1 94
e 1 101
e 1 103
e 1 104
e 1 108
e 1 113
e 1 114
e 1 115
e 1 116
e 1 120
e 1 123
e 1 128
e 1 129
e 1 134
e 1 138
e 1 139
e 1 143
e 1 146
e 1 147
e 1 150
e 2 12
e 2 17
e 2 22
e 2 23
e 2 24
e 2 33
e 2 47
e 2 48
e 2 50
e 2 59
e 2 78
e 2 80
e 2 81
e 2 82
e 2 83
e 2 84
e 2 89
e 2 92
e 2 95
e 2 96
e 2 98
e 2 106
e 2 108
e 2 110
e 2 111
e 2 117
e 2 129
e 2 132
e 2 140
e 2 144
e 2 148
e 2 155
e 2 158
e 3 9
e 3 20
e 3 21
e 3 22
e 3 27
e 3 36
e 3 44
e 3 47
e 3 53
e 3 54
e 3 55
e 3 57
e 3 65
e 3 75
e 3 76
e 3 78
e 3 83
e 3 101
e 3 106
e 3 109
e 3 110
e 3 112
e 3 126
e 3 131
e 3 133
e 3 134
e 3 136
e 3 137
e 3 138
e 3 140
e 3 143
e 3 144
e 3 146
e 3 154
e 3 158
e 4 9
e 4 21
e 4 27
e 4 28
e 4 29
e 4 30
e 4 32
e 4 38
e 4 44
e 4 48
e 4 49
e 4 56
e 4 68
e 4 69
e 4 70
e 4 76
e 4 91
e 4 98
e 4 108
e 4 109
e 4 111
e 4 114
e 4 118
e 4 119
e 4 130
e 4 132
e 4 144
e 4 157
e 5 9
e 5 11
e 5 13
e 5 22
e 5 25
e 5 26
e 5 30
e 5 37
e 5 39
e 5 42
e 5 43
e 5 55
e 5 56
e 5 69
e 5 72
e 5 81
e 5 91
e 5 94
e 5 96
e 5 98
e 5 100
e 5 104
e 5 111
e 5 114
e 5 115
e 5 116
e 5 130
e 5 135
e 5 137
e 5 148
e 6 8
e 6 14
e 6 15
e 6 16
e 6 41
e 6 42
e 6 50
e 6 54
e 6 56
e 6 58
e 6 62
e 6 69
e 6 81
e 6 98
e 6 102
e 6 105
e 6 114
e 6 120
e 6 121
e 6 127
e 6 130
e 6 133
e 6 134
e 6 142
e 6 144
e 6 156
e 6 157
e 6 159
e 7 19
e 7 21
e 7 22
e 7 24
e 7 29
e 7 30
e 7 33
e 7 35
e 7 36
e 7 58
e 7 63
e 7 71
e 7 76
e 7 82
e 7 83
e 7 87
e 7 88
e 7 94
e 7 97
e 7 103
e 7 116
e 7 119
e 7 125
e 7 131
e 7 138
e 7 141
e 7 145
e 7 151
e 7 156
e 7 160
e 8 10
e 8 13
e 8 28
e 8 30
e 8 33
e 8 45
e 8 47
e 8 51
e 8 53
e 8 59
e 8 63
e 8 68
e 8 80
e 8 83
e 8 86
e 8 88
e 8 89
e 8 91
e 8 97
e 8 98
e 8 104
e 8 107
e 8 108
e 8 110
e 8 112
e 8 114
e 8 117
e 8 122
e 8 123
e 8 128
e 8 129
e 8 132
e 8 140
e 8 150
e 9 11
e 9 29
e 9 34
e 9 35
e 9 52
e 9 57
e 9 61
e 9 63
e 9 64
e 9 65
e 9 67
e 9 72
e 9 74
e 9 76
e 9 78
e 9 85
e 9 97
e 9 113
e 9 116
e 9 131
e 9 132
e 9 138
e 9 151
e 9 152
e 9 159
e 9 160
e 10 25
e 10 43
e 10 45
e 10 48
e 10 55
e 10 56
e 10 60
e 10 61
e 10 66
e 10 72
e 10 76
e 10 80
e 10 86
e 10 92
e 10 94
e 10 99
e 10 100
e 10 104
e 10 121
e 10 124
e 10 125
e 10 127
e 10 130
e 10 132
e 10 138
e 10 139
e 11 15
e 11 29
e 11 38
e 11 40
e 11 43
e 11 54
e 11 58
e 11 63
e 11 74
e 11 75
e 11 79
e 11 83
e 11 86
e 11 91
e 11 93
e 11 100
e 11 101
e 11 106
e 11 107
e 11 111
e 11 115
e 11 122
e 11 125
e 11 127
e 11 133
e 11 134
e 11 138
e 11 141
e 12 13
e 12 16
e 12 20
e 12 21
e 12 26
e 12 33
e 12 40
e 12 47
e 12 48
e 12 50
e 12 52
e 12 56
e 12 70
e 12 78
e 12 80
e 12 91
e 12 94
e 12 95
e 12 105
e 12 111
e 12 113
e 12 115
e 12 116
e 12 121
e 12 128
e 12 129
e 12 136
e 12 149
e 12 152
e 12 153
e 12 155
e 12 157
e 13 14
e 13 20
e 13 31
e 13 32
e 13 39
e 13 40
e 13 42
e 13 59
e 13 63
e 13 67
e 13 69
e 13 73
e 13 76
e 13 79
e 13 83
e 13 88
e 13 93
e 13 94
e 13 99
e 13 101
e 13 106
e 13 111
e 13 114
e 13 115
e 13 120
e 13 124
e 13 134
e 13 137
e 13 138
e 13 143
e 13 153
e 13 154
e 13 157
e 13 159
e 14 23
e 14 24
e 14 31
e 14 49
e 14 63
e 14 65
e 14 76
e 14 79
e 14 83
e 14 86
e 14 88
e 14 89
e 14 94
e 14 99
e 14 101
e 14 102
e 14 104
e 14 105
e 14 108
e 14 109
e 14 111
e 14 113
e 14 117
e 14 118
e 14 133
e 14 145
e 14 153
e 14 156
e 14 157
e 14 158
e 15 29
e 15 32
e 15 41
e 15 53
e 15 59
e 15 63
e 15 67
e 15 69
e 15 72
e 15 74
e 15 79
e 15 84
e 15 85
e 15 86
e 15 89
e 15 93
e 15 94
e 15 100
e 15 107
e 15 111
e 15 119
e 15 120
e 15 125
e 15 131
e 15 133
e 15 136
e 15 142
e 15 144
e 15 145
e 15 147
e 15 152
e 15 153
e 15 159
e 16 24
e 16 25
e 16 27
e 16 31
e 16 36
e 16 39
e 16 56
e 16 66
e 16 71
e 16 73
e 16 81
e 16 83
e 16 90
e 16 92
e 16 99
e 16 101
e 16 103
e 16 111
e 16 112
e 16 136
e 16 144
e 16 147
e 16 149
e 16 150
e 16 152
e 16 156
e 16 158
e 17 18
e 17 19
e 17 24
e 17 25
e 17 31
e 17 43
e 17 48
e 17 59
e 17 68
e 17 70
e 17 72
e 17 74
e 17 80
e 17 81
e 17 85
e 17 86
e 17 89
e 17 91
e 17 92
e 17 95
e 17 102
e 17 103
e 17 104
e 17 105
e 17 115
e 17 117
e 17 132
e 17 133
e 17 135
e 17 137
e 17 144
e 17 145
e 17 153
e 18 25
e 18 29
e 18 34
e 18 35
e 18 36
e 18 43
e 18 46
e 18 47
e 18 52
e 18 53
e 18 56
e 18 58
e 18 66
e 18 69
e 18 71
e 18 76
e 18 79
e 18 81
e 18 84
e 18 85
e 18 88
e 18 94
e 18 98
e 18 104
e 18 109
e 18 119
e 18 138
e 18 143
e 18 160
e 19 21
e 19 26
e 19 28
e 19 29
e 19 35
e 19 41
e 19 43
e 19 47
e 19 49
e 19 53
e 19 54
e 19 55
e 19 66
e 19 70
e 19 75
e 19 77
e 19 78
e 19 79
e 19 81
e 19 89
e 19 91
e 19 97
e 19 103
e 19 106
e 19 126
e 19 127
e 19 130
e 19 131
e 19 139
e 19 148
e 19 156
e 19 159
e 20 31
e 20 39
e 20 46
e 20 51
e 20 53
e 20 60
e 20 61
e 20 62
e 20 64
e 20 69
e 20 75
e 20 78
e 20 85
e 20 89
e 20 93
e 20 94
e 20 95
e 20 108
e 20 114
e 20 127
e 20 132
e 20 138
e 20 140
e 20 144
e 20 145
e 20 155
e 20 159
e 21 26
e 21 33
e 21 35
e 21 41
e 21 49
e 21 57
e 21 64
e 21 70
e 21 73
e 21 78
e 21 81
e 21 88
e 21 91
e 21 100
e 21 103
e 21 104
e 21 106
e 21 108
e 21 111
e 21 117
e 21 122
e 21 125
e 21 126
e 21 140
e 21 144
e 21 149
e 21 151
e 21 154
e 22 25
e 22 31
e 22 34
e 22 41
e 22 50
e 22 64
e 22 65
e 22 66
e 22 67
e 22 73
e 22 76
e 22 77
e 22 87
e 22 98
e 22 105
e 22 106
e 22 107
e 22 108
e 22 117
e 22 118
e 22 119
e 22 122
e 22 125
e 22 131
e 22 134
e 22 144
e 22 145
e 22 152
e 22 156
e 22 159
e 23 25
e 23 30
e 23 32
e 23 34
e 23 36
e 23 39
e 23 41
e 23 51
e 23 57
e 23 62
e 23 66
e 23 70
e 23 74
e 23 77
e 23 79
e 23 80
e 23 84
e 23 86
e 23 92
e 23 96
e 23 99
e 23 105
e 23 110
e 23 111
e 23 115
e 23 116
e 23 117
e 23 119
e 23 127
e 23 130
e 23 135
e 23 142
e 23 145
e 23 146
e 23 159
e 24 29
e 24 32
e 24 36
e 24 40
e 24 42
e 24 43
e 24 44
e 24 45
e 24 50
e 24 52
e 24 55
e 24 58
e 24 60
e 24 61
e 24 64
e 24 75
e 24 76
e 24 83
e 24 85
e 24 87
e 24 92
e 24 95
e 24 99
e 24 104
e 24 121
e 24 122
e 24 134
e 24 136
e 24 142
e 24 146
e 24 147
e 24 150
e 24 152
e 24 156
e 24 159
e 25 34
e 25 39
e 25 45
e 25 48
e 25 55
e 25 62
e 25 70
e 25 73
e 25 80
e 25 101
e 25 103
e 25 105
e 25 106
e 25 114
e 25 115
e 25 116
e 25 122
e 25 127
e 25 133
e 25 137
e 25 140
e 25 144
e 25 150
e 26 28
e 26 29
e 26 30
e 26 42
e 26 45
e 26 46
e 26 55
e 26 65
e 26 73
e 26 74
e 26 78
e 26 89
e 26 100
e 26 102
e 26 104
e 26 108
e 26 120
e 26 124
e 26 127
e 26 135
e 26 137
e 26 138
e 26 151
e 26 156
e 27 29
e 27 30
e 27 34
e 27 41
e 27 50
e 27 51
e 27 52
e 27 56
e 27 57
e 27 61
e 27 66
e 27 71
e 27 80
e 27 83
e 27 84
e 27 85
e 27 87
e 27 89
e 27 94
e 27 95
e 27 96
e 27 99
e 27 100
e 27 103
e 27 117
e 27 120
e 27 123
e 27 128
e 27 129
e 27 130
e 27 142
e 27 154
e 27 157
e 28 29
e 28 33
e 28 38
e 28 43
e 28 69
e 28 71
e 28 79
e 28 82
e 28 84
e 28 85
e 28 93
e 28 94
e 28 96
e 28 108
e 28 118
e 28 126
e 28 131
e 28 138
e 28 141
e 28 158
e 29 31
e 29 32
e 29 51
e 29 52
e 29 53
e 29 58
e 29 60
e 29 64
e 29 72
e 29 73
e 29 77
e 29 90
e 29 91
e 29 92
e 29 108
e 29 109
e 29 110
e 29 114
e 29 119
e 29 132
e 29 136
e 29 139
e 29 154
e 29 156
e 29 157
e 29 158
e 30 32
e 30 46
e 30 49
e 30 51
e 30 66
e 30 67
e 30 81
e 30 86
e 30 87
e 30 94
e 30 105
e 30 106
e 30 108
e 30 122
e 30 124
e 30 132
e 30 133
e 30 140
e 30 144
e 30 147
e 30 151
e 31 32
e 31 35
e 31 37
e 31 46
e 31 48
e 31 49
e 31 51
e 31 52
e 31 56
e 31 57
e 31 69
e 31 70
e 31 72
e 31 79
e 31 80
e 31 86
e 31 90
e 31 92
e 31 94
e 31 99
e 31 100
e 31 109
e 31 111
e 31 114
e 31 115
e 31 117
e 31 118
e 31 121
e 31 123
e 31 132
e 31 137
e 31 139
e 31 140
e 31 141
e 31 145
e 31 153
e 31 156
e 32 42
e 32 44
e 32 51
e 32 55
e 32 60
e 32 63
e 32 70
e 32 80
e 32 81
e 32 88
e 32 90
e 32 91
e 32 105
e 32 106
e 32 108
e 32 110
e 32 116
e 32 120
e 32 124
e 32 129
e 32 132
e 32 135
e 32 136
e 32 139
e 32 140
e 32 141
e 32 142
e 32 152
e 32 153
e 32 155
e 33 42
e 33 43
e 33 46
e 33 50
e 33 55
e 33 57
e 33 63
e 33 64
e 33 71
e 33 73
e 33 75
e 33 78
e 33 80
e 33 83
e 33 91
e 33 103
e 33 110
e 33 114
e 33 119
e 33 132
e 33 137
e 33 140
e 33 143
e 33 145
e 33 160
e 34 36
e 34 39
e 34 42
e 34 43
e 34 46
e 34 50
e 34 61
e 34 62
e 34 82
e 34 83
e 34 84
e 34 99
e 34 115
e 34 116
e 34 120
e 34 121
e 34 136
e 34 143
e 34 146
e 34 148
e 34 149
e 34 157
e 35 38
e 35 42
e 35 54
e 35 61
e 35 64
e 35 68
e 35 69
e 35 79
e 35 80
e 35 87
e 35 93
e 35 96
e 35 100
e 35 101
e 35 105
e 35 112
e 35 118
e 35 121
e 35 133
e 35 135
e 35 137
e 35 139
e 35 142
e 35 157
e 35 160
e 36 44
e 36 47
e 36 56
e 36 60
e 36 61
e 36 68
e 36 69
e 36 78
e 36 79
e 36 80
e 36 84
e 36 93
e 36 94
e 36 98
e 36 112
e 36 114
e 36 119
e 36 121
e 36 123
e 36 136
e 36 138
e 36 139
e 36 150
e 37 40
e 37 42
e 37 43
e 37 47
e 37 50
e 37 51
e 37 54
e 37 56
e 37 63
e 37 64
e 37 71
e 37 72
e 37 75
e 37 82
e 37 85
e 37 93
e 37 99
e 37 113
e 37 115
e 37 116
e 37 120
e 37 128
e 37 135
e 37 136
e 37 141
e 37 142
e 37 149
e 37 152
e 37 154
e 37 158
e 38 39
e 38 42
e 38 44
e 38 48
e 38 49
e 38 58
e 38 64
e 38 67
e 38 72
e 38 81
e 38 87
e 38 89
e 38 93
e 38 96
e 38 107
e 38 111
e 38 113
e 38 117
e 38 123
e 38 129
e 38 138
e 38 139
e 38 153
e 39 42
e 39 43
e 39 49
e 39 50
e 39 54
e 39 57
e 39 59
e 39 61
e 39 72
e 39 73
e 39 74
e 39 75
e 39 83
e 39 85
e 39 96
e 39 98
e 39 99
e 39 100
e 39 105
e 39 110
e 39 114
e 39 121
e 39 127
e 39 128
e 39 132
e 39 152
e 39 154
e 39 156
e 40 44
e 40 46
e 40 49
e 40 51
e 40 52
e 40 57
e 40 69
e 40 71
e 40 75
e 40 85
e 40 86
e 40 87
e 40 94
e 40 97
e 40 102
e 40 105
e 40 108
e 40 111
e 40 112
e 40 119
e 40 121
e 40 123
e 40 128
e 40 132
e 41 43
e 41 52
e 41 53
e 41 65
e 41 73
e 41 86
e 41 88
e 41 96
e 41 98
e 41 101
e 41 103
e 41 107
e 41 108
e 41 114
e 41 120
e 41 124
e 41 126
e 41 128
e 41 137
e 41 141
e 41 142
e 41 148
e 41 156
e 41 160
e 42 47
e 42 80
e 42 81
e 42 85
e 42 87
e 42 94
e 42 99
e 42 108
e 42 119
e 42 123
e 42 126
e 42 134
e 42 143
e 42 147
e 43 46
e 43 50
e 43 55
e 43 64
e 43 68
e 43 74
e 43 78
e 43 90
e 43 95
e 43 105
e 43 106
e 43 108
e 43 111
e 43 112
e 43 127
e 43 129
e 43 131
e 43 133
e 43 134
e 43 142
e 43 143
e 43 149
e 43 153
e 43 159
e 44 51
e 44 54
e 44 55
e 44 59
e 44 60
e 44 64
e 44 67
e 44 73
e 44 83
e 44 114
e 44 120
e 44 121
e 44 134
e 44 136
e 44 140
e 44 145
e 44 146
e 44 147
e 44 148
e 44 152
e 45 46
e 45 48
e 45 51
e 45 58
e 45 59
e 45 70
e 45 77
e 45 78
e 45 80
e 45 84
e 45 86
e 45 88
e 45 91
e 45 96
e 45 103
e 45 105
e 45 108
e 45 116
e 45 122
e 45 125
e 45 127
e 45 129
e 45 131
e 45 135
e 45 140
e 45 143
e 45 144
e 45 151
e 45 156
e 46 48
e 46 53
e 46 54
e 46 56
e 46 70
e 46 71
e 46 74
e 46 79
e 46 84
e 46 85
e 46 86
e 46 91
e 46 94
e 46 105
e 46 106
e 46 108
e 46 118
e 46 119
e 46 128
e 46 141
e 46 146
e 46 150
e 46 152
e 46 158
e 47 52
e 47 59
e 47 60
e 47 63
e 47 65
e 47 70
e 47 71
e 47 76
e 47 79
e 47 80
e 47 86
e 47 93
e 47 96
e 47 103
e 47 105
e 47 114
e 47 116
e 47 121
e 47 122
e 47 124
e 47 128
e 47 135
e 47 144
e 47 146
e 47 155
e 47 158
e 47 159
e 47 160
e 48 49
e 48 50
e 48 51
e 48 52
e 48 53
e 48 66
e 48 83
e 48 87
e 48 104
e 48 105
e 48 106
e 48 109
e 48 112
e 48 123
e 48 136
e 48 137
e 48 141
e 48 143
e 49 61
e 49 65
e 49 79
e 49 86
e 49 88
e 49 94
e 49 106
e 49 113
e 49 114
e 49 118
e 49 127
e 49 129
e 49 132
e 49 135
e 49 139
e 49 156
e 49 157
e 49 158
e 49 159
e 50 52
e 50 55
e 50 75
e 50 79
e 50 87
e 50 92
e 50 95
e 50 96
e 50 98
e 50 101
e 50 106
e 50 109
e 50 115
e 50 117
e 50 129
e 50 135
e 50 136
e 50 139
e 50 140
e 50 142
e 50 149
e 50 151
e 50 154
e 51 56
e 51 82
e 51 83
e 51 84
e 51 88
e 51 89
e 51 99
e 51 100
e 51 110
e 51 116
e 51 132
e 51 139
e 51 145
e 51 146
e 51 152
e 51 153
e 51 158
e 51 160
e 52 55
e 52 57
e 52 70
e 52 73
e 52 74
e 52 81
e 52 85
e 52 87
e 52 92
e 52 94
e 52 102
e 52 106
e 52 107
e 52 112
e 52 116
e 52 122
e 52 126
e 52 131
e 52 137
e 52 149
e 52 151
e 52 158
e 53 55
e 53 58
e 53 61
e 53 63
e 53 67
e 53 80
e 53 81
e 53 84
e 53 86
e 53 96
e 53 97
e 53 102
e 53 107
e 53 113
e 53 131
e 53 136
e 53 137
e 53 144
e 53 145
e 53 148
e 53 158
e 54 57
e 54 66
e 54 87
e 54 89
e 54 113
e 54 122
e 54 125
e 54 126
e 54 128
e 54 135
e 54 144
e 54 151
e 54 152
e 54 157
e 54 158
e 55 64
e 55 70
e 55 71
e 55 72
e 55 79
e 55 81
e 55 88
e 55 92
e 55 100
e 55 101
e 55 104
e 55 107
e 55 111
e 55 114
e 55 117
e 55 122
e 55 134
e 55 135
e 55 155
e 55 156
e 56 58
e 56 66
e 56 73
e 56 76
e 56 77
e 56 89
e 56 92
e 56 96
e 56 97
e 56 104
e 56 109
e 56 110
e 56 120
e 56 121
e 56 124
e 56 127
e 56 131
e 56 141
e 56 142
e 56 143
e 56 147
e 56 157
e 57 60
e 57 70
e 57 75
e 57 80
e 57 84
e 57 88
e 57 101
e 57 111
e 57 113
e 57 118
e 57 130
e 57 133
e 57 142
e 57 143
e 57 145
e 58 64
e 58 69
e 58 73
e 58 80
e 58 85
e 58 101
e 58 102
e 58 113
e 58 126
e 58 134
e 58 137
e 58 141
e 58 146
e 58 158
e 58 159
e 59 61
e 59 73
e 59 77
e 59 83
e 59 87
e 59 89
e 59 95
e 59 101
e 59 114
e 59 116
e 59 121
e 59 128
e 59 132
e 59 136
e 59 142
e 59 148
e 59 158
e 60 62
e 60 70
e 60 89
e 60 101
e 60 111
e 60 114
e 60 120
e 60 123
e 60 124
e 60 126
e 60 134
e 60 137
e 60 144
e 60 151
e 60 156
e 61 64
e 61 65
e 61 67
e 61 68
e 61 70
e 61 71
e 61 73
e 61 78
e 61 82
e 61 84
e 61 90
e 61 99
e 61 101
e 61 104
e 61 105
e 61 121
e 61 124
e 61 129
e 61 132
e 61 133
e 61 134
e 61 136
e 61 137
e 61 154
e 61 155
e 61 157
e 61 158
e 61 160
e 62 64
e 62 66
e 62 68
e 62 69
e 62 74
e 62 82
e 62 89
e 62 92
e 62 95
e 62 99
e 62 102
e 62 105
e 62 107
e 62 116
e 62 122
e 62 129
e 62 130
e 62 131
e 62 138
e 62 146
e 62 147
e 62 149
e 62 156
e 63 65
e 63 68
e 63 69
e 63 79
e 63 81
e 63 84
e 63 85
e 63 87
e 63 93
e 63 94
e 63 98
e 63 100
e 63 122
e 63 132
e 63 141
e 63 143
e 63 147
e 63 149
e 63 158
e 64 67
e 64 68
e 64 70
e 64 77
e 64 78
e 64 83
e 64 93
e 64 97
e 64 102
e 64 106
e 64 107
e 64 109
e 64 118
e 64 133
e 64 135
e 64 137
e 64 143
e 64 144
e 64 146
e 64 155
e 64 158
e 65 73
e 65 76
e 65 79
e 65 80
e 65 84
e 65 87
e 65 90
e 65 96
e 65 101
e 65 106
e 65 109
e 65 111
e 65 112
e 65 115
e 65 126
e 65 127
e 65 128
e 65 132
e 65 134
e 65 140
e 65 148
e 65 149
e 65 150
e 65 156
e 65 157
e 65 158
e 66 80
e 66 83
e 66 90
e 66 97
e 66 102
e 66 109
e 66 120
e 66 122
e 66 126
e 66 135
e 66 139
e 66 140
e 66 142
e 66 143
e 66 146
e 66 149
e 66 151
e 66 156
e 67 78
e 67 83
e 67 90
e 67 95
e 67 96
e 67 98
e 67 102
e 67 107
e 67 119
e 67 122
e 67 124
e 67 140
e 67 144
e 67 148
e 67 153
e 67 156
e 67 158
e 68 70
e 68 74
e 68 77
e 68 87
e 68 90
e 68 94
e 68 95
e 68 96
e 68 100
e 68 101
e 68 104
e 68 108
e 68 109
e 68 118
e 68 121
e 68 124
e 68 126
e 68 128
e 68 130
e 68 133
e 68 140
e 68 149
e 68 151
e 69 71
e 69 81
e 69 82
e 69 85
e 69 87
e 69 89
e 69 111
e 69 135
e 69 150
e 69 157
e 70 72
e 70 73
e 70 77
e 70 78
e 70 84
e 70 89
e 70 90
e 70 97
e 70 103
e 70 106
e 70 111
e 70 116
e 70 132
e 70 135
e 70 136
e 70 138
e 70 143
e 70 148
e 70 150
e 70 159
e 71 72
e 71 74
e 71 79
e 71 81
e 71 104
e 71 106
e 71 110
e 71 115
e 71 116
e 71 119
e 71 121
e 71 130
e 71 143
e 71 147
e 71 148
e 71 154
e 71 156
e 72 76
e 72 84
e 72 87
e 72 88
e 72 96
e 72 101
e 72 103
e 72 105
e 72 107
e 72 108
e 72 109
e 72 110
e 72 113
e 72 116
e 72 119
e 72 121
e 72 123
e 72 128
e 72 130
e 72 132
e 72 140
e 72 150
e 72 155
e 73 75
e 73 82
e 73 83
e 73 87
e 73 94
e 73 95
e 73 99
e 73 101
e 73 102
e 73 112
e 73 113
e 73 119
e 73 120
e 73 121
e 73 122
e 73 137
e 73 144
e 73 145
e 73 149
e 73 152
e 73 154
e 73 155
e 74 76
e 74 78
e 74 88
e 74 93
e 74 94
e 74 96
e 74 112
e 74 113
e 74 120
e 74 123
e 74 126
e 74 128
e 74 138
e 74 141
e 74 144
e 74 146
e 74 155
e 74 158
e 74 160
e 75 89
e 75 91
e 75 94
e 75 100
e 75 105
e 75 116
e 75 120
e 75 121
e 75 123
e 75 124
e 75 125
e 75 126
e 75 127
e 75 133
e 75 141
e 75 142
e 75 151
e 75 152
e 75 159
e 76 80
e 76 94
e 76 97
e 76 103
e 76 104
e 76 113
e 76 117
e 76 119
e 76 122
e 76 123
e 76 125
e 76 129
e 76 131
e 76 133
e 76 136
e 76 141
e 76 144
e 76 146
e 76 149
e 76 152
e 76 154
e 77 78
e 77 85
e 77 108
e 77 109
e 77 111
e 77 112
e 77 114
e 77 117
e 77 127
e 77 132
e 77 134
e 77 137
e 77 141
e 77 147
e 78 83
e 78 85
e 78 99
e 78 102
e 78 104
e 78 106
e 78 114
e 78 131
e 78 132
e 78 138
e 78 143
e 78 144
e 78 146
e 78 153
e 78 154
e 79 81
e 79 110
e 79 121
e 79 124
e 79 132
e 79 151
e 79 153
e 79 158
e 79 159
e 80 84
e 80 87
e 80 88
e 80 90
e 80 108
e 80 109
e 80 120
e 80 125
e 80 126
e 80 134
e 80 148
e 80 149
e 80 155
e 80 160
e 81 87
e 81 95
e 81 110
e 81 113
e 81 114
e 81 115
e 81 121
e 81 122
e 81 125
e 81 126
e 81 129
e 81 132
e 81 140
e 81 143
e 81 145
e 81 151
e 81 152
e 81 156
e 81 157
e 81 159
e 82 83
e 82 87
e 82 91
e 82 95
e 82 103
e 82 108
e 82 109
e 82 110
e 82 111
e 82 112
e 82 119
e 82 154
e 82 158
e 83 86
e 83 109
e 83 111
e 83 119
e 83 120
e 83 121
e 83 126
e 83 136
e 83 140
e 83 142
e 83 145
e 83 149
e 83 150
e 83 151
e 83 159
e 84 88
e 84 93
e 84 103
e 84 111
e 84 112
e 84 121
e 84 131
e 84 141
e 84 143
e 84 148
e 84 150
e 84 153
e 84 159
e 85 86
e 85 90
e 85 94
e 85 102
e 85 103
e 85 105
e 85 114
e 85 115
e 85 126
e 85 130
e 85 135
e 85 137
e 85 139
e 85 156
e 85 159
e 86 89
e 86 90
e 86 103
e 86 106
e 86 107
e 86 109
e 86 117
e 86 124
e 86 134
e 86 140
e 86 143
e 86 144
e 86 147
e 86 149
e 86 159
e 87 98
e 87 104
e 87 112
e 87 115
e 87 120
e 87 124
e 87 134
e 87 139
e 87 140
e 87 147
e 87 150
e 87 152
e 87 155
e 88 94
e 88 98
e 88 101
e 88 105
e 88 110
e 88 119
e 88 121
e 88 126
e 88 129
e 88 135
e 88 136
e 88 140
e 88 141
e 88 144
e 88 147
e 88 154
e 89 107
e 89 112
e 89 115
e 89 116
e 89 124
e 89 125
e 89 127
e 89 130
e 89 134
e 89 140
e 89 143
e 89 146
e 89 150
e 89 151
e 90 93
e 90 97
e 90 99
e 90 104
e 90 105
e 90 110
e 90 119
e 90 126
e 90 128
e 90 134
e 90 136
e 90 140
e 90 142
e 90 147
e 90 151
e 90 152
e 90 160
e 91 92
e 91 108
e 91 114
e 91 115
e 91 118
e 91 125
e 91 127
e 91 129
e 91 132
e 91 139
e 91 144
e 91 145
e 91 154
e 92 101
e 92 102
e 92 109
e 92 118
e 92 121
e 92 122
e 92 130
e 92 131
e 92 135
e 92 140
e 92 149
e 92 151
e 92 157
e 93 95
e 93 108
e 93 110
e 93 113
e 93 115
e 93 119
e 93 128
e 93 133
e 93 136
e 93 143
e 93 144
e 93 153
e 93 156
e 93 157
e 94 97
e 94 106
e 94 116
e 94 118
e 94 119
e 94 125
e 94 134
e 94 139
e 95 98
e 95 100
e 95 103
e 95 107
e 95 109
e 95 111
e 95 112
e 95 126
e 95 134
e 95 135
e 95 137
e 95 153
e 95 155
e 96 98
e 96 101
e 96 104
e 96 105
e 96 107
e 96 108
e 96 116
e 96 129
e 96 131
e 96 146
e 96 150
e 96 151
e 96 154
e 96 156
e 97 99
e 97 105
e 97 110
e 97 112
e 97 115
e 97 121
e 97 123
e 97 127
e 97 131
e 97 133
e 97 134
e 97 139
e 97 142
e 97 150
e 97 154
e 97 160
e 98 106
e 98 110
e 98 112
e 98 113
e 98 121
e 98 128
e 98 131
e 98 136
e 98 137
e 98 140
e 98 143
e 98 150
e 98 157
e 98 160
e 99 104
e 99 106
e 99 112
e 99 116
e 99 119
e 99 124
e 99 125
e 99 126
e 99 130
e 99 132
e 99 135
e 99 137
e 99 143
e 99 145
e 99 148
e 100 104
e 100 108
e 100 110
e 100 112
e 100 113
e 100 117
e 100 120
e 100 134
e 100 142
e 100 151
e 100 152
e 100 158
e 101 105
e 101 113
e 101 115
e 101 116
e 101 118
e 101 125
e 101 130
e 101 147
e 101 152
e 101 154
e 101 158
e 102 108
e 102 116
e 102 117
e 102 123
e 102 128
e 102 138
e 102 143
e 102 154
e 102 156
e 102 158
e 103 112
e 103 125
e 103 132
e 103 134
e 103 139
e 103 140
e 103 141
e 103 146
e 103 158
e 104 105
e 104 111
e 104 120
e 104 142
e 104 145
e 104 146
e 104 148
e 104 150
e 105 106
e 105 107
e 105 110
e 105 111
e 105 112
e 105 114
e 105 115
e 105 134
e 105 138
e 105 146
e 105 149
e 105 154
e 105 159
e 106 112
e 106 115
e 106 117
e 106 120
e 106 131
e 106 142
e 106 144
e 106 147
e 106 157
e 106 160
e 107 108
e 107 113
e 107 134
e 107 137
e 107 141
e 107 143
e 107 146
e 107 147
e 108 121
e 108 135
e 108 136
e 108 141
e 108 145
e 108 149
e 108 151
e 108 152
e 108 153
e 108 159
e 108 160
e 109 110
e 109 123
e 109 124
e 109 127
e 109 132
e 109 136
e 109 146
e 109 149
e 109 151
e 109 153
e 109 158
e 110 115
e 110 117
e 110 124
e 110 134
e 110 136
e 110 151
e 110 156
e 111 120
e 111 121
e 111 129
e 111 130
e 111 136
e 111 139
e 111 142
e 111 145
e 111 151
e 111 159
e 112 113
e 112 123
e 112 138
e 112 143
e 112 144
e 112 158
e 113 114
e 113 115
e 113 118
e 113 123
e 113 143
e 113 146
e 113 149
e 113 157
e 114 122
e 114 131
e 114 141
e 114 145
e 114 148
e 114 155
e 115 116
e 115 117
e 115 118
e 115 125
e 115 126
e 115 129
e 115 130
e 115 131
e 115 134
e 115 137
e 115 138
e 115 141
e 115 144
e 115 146
e 115 156
e 115 157
e 116 117
e 116 123
e 116 124
e 116 125
e 116 126
e 116 129
e 116 131
e 116 133
e 116 137
e 116 143
e 116 147
e 116 154
e 116 157
e 117 131
e 117 140
e 117 141
e 117 146
e 117 147
e 117 152
e 117 155
e 117 156
e 117 159
e 118 121
e 118 122
e 118 128
e 118 130
e 118 131
e 118 133
e 118 149
e 118 151
e 118 154
e 118 160
e 119 122
e 119 135
e 119 141
e 119 143
e 119 144
e 119 152
e 119 155
e 119 159
e 119 160
e 120 127
e 120 136
e 120 137
e 120 145
e 120 148
e 120 149
e 120 150
e 120 152
e 121 122
e 121 124
e 121 126
e 121 131
e 121 139
e 121 142
e 121 146
e 121 148
e 121 150
e 121 151
e 121 152
e 121 153
e 121 160
e 122 126
e 122 128
e 122 129
e 122 138
e 122 140
e 122 141
e 122 143
e 122 145
e 122 146
e 122 151
e 122 155
e 122 158
e 123 132
e 123 133
e 123 137
e 123 139
e 123 146
e 123 155
e 124 128
e 124 142
e 124 151
e 124 154
e 124 159
e 125 132
e 125 150
e 125 151
e 125 152
e 125 160
e 126 141
e 126 144
e 126 145
e 126 150
e 126 152
e 126 159
e 127 131
e 127 139
e 127 143
e 127 149
e 127 152
e 128 129
e 128 136
e 128 139
e 128 140
e 128 144
e 128 147
e 128 153
e 128 154
e 129 133
e 129 134
e 129 136
e 129 140
e 129 141
e 129 160
e 130 134
e 130 136
e 130 141
e 130 151
e 131 150
e 132 140
e 132 142
e 132 145
e 132 150
e 133 140
e 134 148
e 134 152
e 135 146
e 136 140
e 136 142
e 136 154
e 136 157
e 136 160
e 137 141
e 137 149
e 137 150
e 137 151
e 138 142
e 138 143
e 138 152
e 138 155
e 139 141
e 139 149
e 139 150
e 139 154
e 139 157
e 140 141
e 140 149
e 141 144
e 141 152
e 141 155
e 141 157
e 142 143
e 142 146
e 142 149
e 142 153
e 142 157
e 142 160
e 143 151
e 144 152
e 144 160
e 145 159
e 145 160
e 146 147
e 146 149
e 146 155
e 146 158
e 147 151
e 147 155
e 148 155
e 149 150
e 149 155
e 150 154
e 150 160
e 151 158
e 151 160
e 152 155
e 153 158
e 153 160
e 157 158
